TIP.Original.Linear/tip2015_weird_nat_mul3acc_rot.smt2
(set-logic HORN)
(declare-datatypes ((Nat_297 0)) (((zero_55 ) (succ_54 (p_152 Nat_297)))))
(declare-fun diseqNat_297 (Nat_297 Nat_297) Bool)
(declare-fun p_153 (Nat_297 Nat_297) Bool)
(declare-fun iszero_54 (Nat_297) Bool)
(declare-fun issucc_54 (Nat_297) Bool)
(assert (forall ((x_26044 Nat_297))
	(p_153 x_26044 (succ_54 x_26044))))
(assert (iszero_54 zero_55))
(assert (forall ((x_26046 Nat_297))
	(issucc_54 (succ_54 x_26046))))
(assert (forall ((x_26047 Nat_297))
	(diseqNat_297 zero_55 (succ_54 x_26047))))
(assert (forall ((x_26048 Nat_297))
	(diseqNat_297 (succ_54 x_26048) zero_55)))
(assert (forall ((x_26049 Nat_297) (x_26050 Nat_297))
	(=> (diseqNat_297 x_26049 x_26050)
	    (diseqNat_297 (succ_54 x_26049) (succ_54 x_26050)))))
(declare-fun plus_54 (Nat_297 Nat_297 Nat_297) Bool)
(assert (forall ((x_25950 Nat_297) (z_968 Nat_297) (y_1001 Nat_297))
	(=> (plus_54 x_25950 z_968 y_1001)
	    (plus_54 (succ_54 x_25950) (succ_54 z_968) y_1001))))
(assert (forall ((x_25951 Nat_297))
	(plus_54 x_25951 zero_55 x_25951)))
(declare-fun addacc_8 (Nat_297 Nat_297 Nat_297 Nat_297) Bool)
(assert (forall ((x_25952 Nat_297) (x_25938 Nat_297) (y_1002 Nat_297) (z_969 Nat_297))
	(=> (addacc_8 x_25952 x_25938 (succ_54 y_1002) z_969)
	    (addacc_8 x_25952 (succ_54 x_25938) y_1002 z_969))))
(assert (forall ((x_25954 Nat_297) (x_25939 Nat_297) (z_969 Nat_297))
	(=> (addacc_8 x_25954 zero_55 x_25939 (succ_54 z_969))
	    (addacc_8 x_25954 zero_55 (succ_54 x_25939) z_969))))
(assert (forall ((x_25956 Nat_297))
	(addacc_8 x_25956 zero_55 zero_55 x_25956)))
(declare-fun mulacc_2 (Nat_297 Nat_297 Nat_297 Nat_297) Bool)
(assert (forall ((x_25957 Nat_297) (x_25958 Nat_297) (x_25959 Nat_297) (x_25960 Nat_297) (x_25961 Nat_297) (x_25962 Nat_297) (x_25963 Nat_297) (fail_9 Nat_297))
	(=>	(and (mulacc_2 x_25957 zero_55 zero_55 zero_55)
			(mulacc_2 x_25958 (succ_54 zero_55) zero_55 zero_55)
			(mulacc_2 x_25959 zero_55 (succ_54 zero_55) zero_55)
			(mulacc_2 x_25960 zero_55 zero_55 (succ_54 zero_55))
			(addacc_8 x_25961 x_25958 x_25959 x_25960)
			(addacc_8 x_25962 (succ_54 zero_55) (succ_54 zero_55) (succ_54 zero_55))
			(addacc_8 x_25963 x_25957 x_25961 x_25962)
			(plus_54 fail_9 (succ_54 zero_55) x_25963))
		(mulacc_2 (succ_54 zero_55) (succ_54 zero_55) (succ_54 zero_55) (succ_54 zero_55)))))
(assert (forall ((x_25966 Nat_297) (x_25967 Nat_297) (x_25968 Nat_297) (x_25969 Nat_297) (x_25970 Nat_297) (x_25971 Nat_297) (x_25972 Nat_297) (fail_9 Nat_297) (x_25943 Nat_297) (x_25942 Nat_297) (x_25941 Nat_297))
	(=>	(and (diseqNat_297 x_25941 zero_55)
			(mulacc_2 x_25966 x_25941 x_25942 x_25943)
			(mulacc_2 x_25967 (succ_54 zero_55) x_25942 x_25943)
			(mulacc_2 x_25968 x_25941 (succ_54 zero_55) x_25943)
			(mulacc_2 x_25969 x_25941 x_25942 (succ_54 zero_55))
			(addacc_8 x_25970 x_25967 x_25968 x_25969)
			(addacc_8 x_25971 (succ_54 x_25941) (succ_54 x_25942) (succ_54 x_25943))
			(addacc_8 x_25972 x_25966 x_25970 x_25971)
			(plus_54 fail_9 (succ_54 zero_55) x_25972))
		(mulacc_2 fail_9 (succ_54 x_25941) (succ_54 x_25942) (succ_54 x_25943)))))
(assert (forall ((x_25975 Nat_297) (x_25976 Nat_297) (x_25977 Nat_297) (x_25978 Nat_297) (x_25979 Nat_297) (x_25980 Nat_297) (x_25981 Nat_297) (fail_9 Nat_297) (x_25943 Nat_297) (x_25942 Nat_297))
	(=>	(and (diseqNat_297 x_25942 zero_55)
			(mulacc_2 x_25975 zero_55 x_25942 x_25943)
			(mulacc_2 x_25976 (succ_54 zero_55) x_25942 x_25943)
			(mulacc_2 x_25977 zero_55 (succ_54 zero_55) x_25943)
			(mulacc_2 x_25978 zero_55 x_25942 (succ_54 zero_55))
			(addacc_8 x_25979 x_25976 x_25977 x_25978)
			(addacc_8 x_25980 (succ_54 zero_55) (succ_54 x_25942) (succ_54 x_25943))
			(addacc_8 x_25981 x_25975 x_25979 x_25980)
			(plus_54 fail_9 (succ_54 zero_55) x_25981))
		(mulacc_2 fail_9 (succ_54 zero_55) (succ_54 x_25942) (succ_54 x_25943)))))
(assert (forall ((x_25984 Nat_297) (x_25985 Nat_297) (x_25986 Nat_297) (x_25987 Nat_297) (x_25988 Nat_297) (x_25989 Nat_297) (x_25990 Nat_297) (fail_9 Nat_297) (x_25943 Nat_297) (x_25942 Nat_297) (x_25941 Nat_297))
	(=>	(and (diseqNat_297 x_25941 zero_55)
			(mulacc_2 x_25984 x_25941 x_25942 x_25943)
			(mulacc_2 x_25985 (succ_54 zero_55) x_25942 x_25943)
			(mulacc_2 x_25986 x_25941 (succ_54 zero_55) x_25943)
			(mulacc_2 x_25987 x_25941 x_25942 (succ_54 zero_55))
			(addacc_8 x_25988 x_25985 x_25986 x_25987)
			(addacc_8 x_25989 (succ_54 x_25941) (succ_54 x_25942) (succ_54 x_25943))
			(addacc_8 x_25990 x_25984 x_25988 x_25989)
			(plus_54 fail_9 (succ_54 zero_55) x_25990))
		(mulacc_2 fail_9 (succ_54 x_25941) (succ_54 x_25942) (succ_54 x_25943)))))
(assert (forall ((x_25993 Nat_297) (x_25994 Nat_297) (x_25995 Nat_297) (x_25996 Nat_297) (x_25997 Nat_297) (x_25998 Nat_297) (x_25999 Nat_297) (fail_9 Nat_297) (x_25943 Nat_297))
	(=>	(and (diseqNat_297 x_25943 zero_55)
			(mulacc_2 x_25993 zero_55 zero_55 x_25943)
			(mulacc_2 x_25994 (succ_54 zero_55) zero_55 x_25943)
			(mulacc_2 x_25995 zero_55 (succ_54 zero_55) x_25943)
			(mulacc_2 x_25996 zero_55 zero_55 (succ_54 zero_55))
			(addacc_8 x_25997 x_25994 x_25995 x_25996)
			(addacc_8 x_25998 (succ_54 zero_55) (succ_54 zero_55) (succ_54 x_25943))
			(addacc_8 x_25999 x_25993 x_25997 x_25998)
			(plus_54 fail_9 (succ_54 zero_55) x_25999))
		(mulacc_2 fail_9 (succ_54 zero_55) (succ_54 zero_55) (succ_54 x_25943)))))
(assert (forall ((x_26002 Nat_297) (x_26003 Nat_297) (x_26004 Nat_297) (x_26005 Nat_297) (x_26006 Nat_297) (x_26007 Nat_297) (x_26008 Nat_297) (fail_9 Nat_297) (x_25943 Nat_297) (x_25942 Nat_297) (x_25941 Nat_297))
	(=>	(and (diseqNat_297 x_25941 zero_55)
			(mulacc_2 x_26002 x_25941 x_25942 x_25943)
			(mulacc_2 x_26003 (succ_54 zero_55) x_25942 x_25943)
			(mulacc_2 x_26004 x_25941 (succ_54 zero_55) x_25943)
			(mulacc_2 x_26005 x_25941 x_25942 (succ_54 zero_55))
			(addacc_8 x_26006 x_26003 x_26004 x_26005)
			(addacc_8 x_26007 (succ_54 x_25941) (succ_54 x_25942) (succ_54 x_25943))
			(addacc_8 x_26008 x_26002 x_26006 x_26007)
			(plus_54 fail_9 (succ_54 zero_55) x_26008))
		(mulacc_2 fail_9 (succ_54 x_25941) (succ_54 x_25942) (succ_54 x_25943)))))
(assert (forall ((x_26011 Nat_297) (x_26012 Nat_297) (x_26013 Nat_297) (x_26014 Nat_297) (x_26015 Nat_297) (x_26016 Nat_297) (x_26017 Nat_297) (fail_9 Nat_297) (x_25943 Nat_297) (x_25942 Nat_297))
	(=>	(and (diseqNat_297 x_25942 zero_55)
			(mulacc_2 x_26011 zero_55 x_25942 x_25943)
			(mulacc_2 x_26012 (succ_54 zero_55) x_25942 x_25943)
			(mulacc_2 x_26013 zero_55 (succ_54 zero_55) x_25943)
			(mulacc_2 x_26014 zero_55 x_25942 (succ_54 zero_55))
			(addacc_8 x_26015 x_26012 x_26013 x_26014)
			(addacc_8 x_26016 (succ_54 zero_55) (succ_54 x_25942) (succ_54 x_25943))
			(addacc_8 x_26017 x_26011 x_26015 x_26016)
			(plus_54 fail_9 (succ_54 zero_55) x_26017))
		(mulacc_2 fail_9 (succ_54 zero_55) (succ_54 x_25942) (succ_54 x_25943)))))
(assert (forall ((x_26020 Nat_297) (x_26021 Nat_297) (x_26022 Nat_297) (x_26023 Nat_297) (x_26024 Nat_297) (x_26025 Nat_297) (x_26026 Nat_297) (fail_9 Nat_297) (x_25943 Nat_297) (x_25942 Nat_297) (x_25941 Nat_297))
	(=>	(and (diseqNat_297 x_25941 zero_55)
			(mulacc_2 x_26020 x_25941 x_25942 x_25943)
			(mulacc_2 x_26021 (succ_54 zero_55) x_25942 x_25943)
			(mulacc_2 x_26022 x_25941 (succ_54 zero_55) x_25943)
			(mulacc_2 x_26023 x_25941 x_25942 (succ_54 zero_55))
			(addacc_8 x_26024 x_26021 x_26022 x_26023)
			(addacc_8 x_26025 (succ_54 x_25941) (succ_54 x_25942) (succ_54 x_25943))
			(addacc_8 x_26026 x_26020 x_26024 x_26025)
			(plus_54 fail_9 (succ_54 zero_55) x_26026))
		(mulacc_2 fail_9 (succ_54 x_25941) (succ_54 x_25942) (succ_54 x_25943)))))
(assert (forall ((x_25942 Nat_297) (x_25941 Nat_297))
	(mulacc_2 zero_55 (succ_54 x_25941) (succ_54 x_25942) zero_55)))
(assert (forall ((x_25941 Nat_297) (z_970 Nat_297))
	(mulacc_2 zero_55 (succ_54 x_25941) zero_55 z_970)))
(assert (forall ((y_1003 Nat_297) (z_970 Nat_297))
	(mulacc_2 zero_55 zero_55 y_1003 z_970)))
(assert (forall ((x_26032 Nat_297) (x_26033 Nat_297) (x_25944 Nat_297) (y_1004 Nat_297) (z_971 Nat_297))
	(=>	(and true
			(diseqNat_297 x_26032 x_26033)
			(mulacc_2 x_26032 x_25944 y_1004 z_971)
			(mulacc_2 x_26033 y_1004 x_25944 z_971))
		false)))
(assert (forall ((x_26034 Nat_297) (x_26035 Nat_297) (x_26036 Nat_297) (x_26037 Nat_297) (x_25945 Nat_297) (y_1005 Nat_297) (z_972 Nat_297))
	(=>	(and true
			(diseqNat_297 x_26035 x_26037)
			(plus_54 x_26034 y_1005 z_972)
			(plus_54 x_26035 x_25945 x_26034)
			(plus_54 x_26036 x_25945 y_1005)
			(plus_54 x_26037 x_26036 z_972))
		false)))
(assert (forall ((x_26038 Nat_297) (x_26039 Nat_297) (x_25946 Nat_297) (y_1006 Nat_297))
	(=>	(and true
			(diseqNat_297 x_26038 x_26039)
			(plus_54 x_26038 x_25946 y_1006)
			(plus_54 x_26039 y_1006 x_25946))
		false)))
(assert (forall ((x_26040 Nat_297) (x_25947 Nat_297))
	(=>	(and true
			(diseqNat_297 x_26040 x_25947)
			(plus_54 x_26040 x_25947 zero_55))
		false)))
(assert (forall ((x_26041 Nat_297) (x_25948 Nat_297))
	(=>	(and true
			(diseqNat_297 x_26041 x_25948)
			(plus_54 x_26041 zero_55 x_25948))
		false)))
(check-sat)
